99
46 107
58 110
67 110
74 113
88 110
2 124
17 134
23 129
36 131
42 137
53 123
63 135
72 134
87 129
2 146
16 147
25 153
38 155
42 158
57 154
66 151
73 151
86 149
5 177
13 162
25 169
35 177
46 172
54 166
65 174
73 161
86 162
2 195
14 196
28 189
38 187
46 195
57 194
63 188
77 193
85 194
8 211
12 217
22 210
34 216
47 203
58 213
66 206
78 210
85 204
6 4
15 15
24 18
33 12
48 12
57 14
67 10
77 10
86 15
6 21
17 26
23 25
32 35
43 23
55 35
65 36
78 39
87 35
3 53
12 44
28 53
33 49
47 46
55 52
64 50
71 57
87 57
4 72
15 78
22 70
34 71
42 79
54 77
66 79
78 67
87 73
7 81
17 95
26 98
32 97
43 88
57 89
64 85
78 83
83 98
5 109
13 111
25 102
38 119
